c turning on binary mode checking
c parsing input formula with 259840 variables and 1039929 clauses
c finished parsing, read 23593591 bytes from proof file
c detected empty clause; start verification via backward checking
c 15019 of 1039929 clauses in core                            
c 19177 of 605649 lemmas in core using 115344 resolution steps
c 0 RAT lemmas in core; 1058 redundant literals in core lemmas
s VERIFIED
c verification time: 3.035 seconds
